750
[75,78,79,81,82,83,84,85,87,91,92,93,94,96,97,98,100,101,102,103,104,108,114,120,124,126,130,134,137,139,140,141,143,144,145,147,149,153,154,157,162,164,167,170,171,172,174,177,178,179,182,186,188,192,194,199,200,201,203,205,209,210,211,214,216,225,226,228,230,231,233,235,236,237,238,239,240,241,243,245,246,247,248,249,250,251,253,254,255,258,261,262,263,264,265,271,272,274,275,276,278,281,282,283,288,289,291,292,295,296,299,300,301,303,304,306,308,309,311,313,315,316,318,319,322,323,324,325,327,328,331,332,339,341,342,344,347,350,351,353,356,357,365,367,369,371,372,374,375,379,380,381,392,395,396,397,398,405,407,409,410,411,412,413,415,417,418,419,420,421,422,423,426,430,434,436,437,443,444,445,447,450,453,454,458,459,461,464,465,467,468,469,477,483,484,487,488,489,493,498,499,500,501,502,503,504,506,511,513,514,516,517,518,519,520,521,522]
[2,1,1,1,1,2,2,1,2,1,3,2,1,1,1,1,1,1,1,2,1,1,2,2,1,1,1,1,1,1,1,1,1,1,1,2,1,1,1,1,1,1,1,2,1,1,1,1,1,1,1,1,1,2,4,1,1,1,2,2,1,1,1,1,1,1,1,1,1,3,1,1,1,1,2,1,3,1,1,1,2,1,2,1,1,2,1,1,1,2,1,1,1,1,1,1,1,1,1,1,2,4,1,2,1,3,1,2,1,2,1,1,1,1,1,2,1,2,1,2,4,1,1,2,2,1,2,1,1,1,1,1,1,1,2,1,2,3,1,2,2,1,1,1,2,1,1,1,1,2,1,2,2,2,1,1,1,1,3,2,1,1,1,1,2,1,1,1,2,2,2,1,1,1,2,1,4,1,1,1,3,2,1,1,1,1,1,2,2,1,1,2,4,2,1,1,3,1,1,2,1,1,1,1,1,1,1,1,1,1,1,1,1,3,1,1,2]
